12
Benzene molecule (C6H6)
C          0.00000        1.39000        0.00000
C          1.20500        0.69500        0.00000
C          1.20500       -0.69500        0.00000
C          0.00000       -1.39000        0.00000
C         -1.20500       -0.69500        0.00000
C         -1.20500        0.69500        0.00000
H          0.00000        2.47000        0.00000
H          2.14000        1.23500        0.00000
H          2.14000       -1.23500        0.00000
H          0.00000       -2.47000        0.00000
H         -2.14000       -1.23500        0.00000
H         -2.14000        1.23500        0.00000
