3
Frame 0  Time=0.000 Step=0
O          0.00000        0.00000        0.00000
H          0.95800        0.00000        0.00000
H         -0.23900        0.92700        0.00000
3
Frame 1  Time=0.010 Step=1
O          0.00000        0.00000        0.00000
H          0.96000        0.00000        0.00000
H         -0.23700        0.92800        0.00000
3
Frame 2  Time=0.020 Step=2
O          0.00000        0.00000        0.00000
H          0.96200        0.00000        0.00000
H         -0.23500        0.92900        0.00000
3
Frame 3  Time=0.030 Step=3
O          0.00000        0.00000        0.00000
H          0.96400        0.00000        0.00000
H         -0.23300        0.93000        0.00000
3
Frame 4  Time=0.040 Step=4
O          0.00000        0.00000        0.00000
H          0.96600        0.00000        0.00000
H         -0.23100        0.93100        0.00000
3
Frame 5  Time=0.050 Step=5
O          0.00000        0.00000        0.00000
H          0.96800        0.00000        0.00000
H         -0.22900        0.93200        0.00000
3
Frame 6  Time=0.060 Step=6
O          0.00000        0.00000        0.00000
H          0.97000        0.00000        0.00000
H         -0.22700        0.93300        0.00000
3
Frame 7  Time=0.070 Step=7
O          0.00000        0.00000        0.00000
H          0.97200        0.00000        0.00000
H         -0.22500        0.93400        0.00000
3
Frame 8  Time=0.080 Step=8
O          0.00000        0.00000        0.00000
H          0.97400        0.00000        0.00000
H         -0.22300        0.93500        0.00000
3
Frame 9  Time=0.090 Step=9
O          0.00000        0.00000        0.00000
H          0.97600        0.00000        0.00000
H         -0.22100        0.93600        0.00000
3
Frame 10  Time=0.100 Step=10
O          0.00000        0.00000        0.00000
H          0.97800        0.00000        0.00000
H         -0.21900        0.93700        0.00000
3
Frame 11  Time=0.110 Step=11
O          0.00000        0.00000        0.00000
H          0.98000        0.00000        0.00000
H         -0.21700        0.93800        0.00000
3
Frame 12  Time=0.120 Step=12
O          0.00000        0.00000        0.00000
H          0.98200        0.00000        0.00000
H         -0.21500        0.93900        0.00000
3
Frame 13  Time=0.130 Step=13
O          0.00000        0.00000        0.00000
H          0.98400        0.00000        0.00000
H         -0.21300        0.94000        0.00000
3
Frame 14  Time=0.140 Step=14
O          0.00000        0.00000        0.00000
H          0.98600        0.00000        0.00000
H         -0.21100        0.94100        0.00000
3
Frame 15  Time=0.150 Step=15
O          0.00000        0.00000        0.00000
H          0.98800        0.00000        0.00000
H         -0.20900        0.94200        0.00000
3
Frame 16  Time=0.160 Step=16
O          0.00000        0.00000        0.00000
H          0.99000        0.00000        0.00000
H         -0.20700        0.94300        0.00000
3
Frame 17  Time=0.170 Step=17
O          0.00000        0.00000        0.00000
H          0.99200        0.00000        0.00000
H         -0.20500        0.94400        0.00000
3
Frame 18  Time=0.180 Step=18
O          0.00000        0.00000        0.00000
H          0.99400        0.00000        0.00000
H         -0.20300        0.94500        0.00000
3
Frame 19  Time=0.190 Step=19
O          0.00000        0.00000        0.00000
H          0.99600        0.00000        0.00000
H         -0.20100        0.94600        0.00000
3
Frame 20  Time=0.200 Step=20
O          0.00000        0.00000        0.00000
H          0.99800        0.00000        0.00000
H         -0.19900        0.94700        0.00000
